benchmarks/VRPTW/TSPTW/solution/n200w20.004.txt.solution
1 45 93 162 69 132 9 193 89 157 163 30 129 125 56 77 183 168 131 143 191 142 95 161 109 180 121 100 118 36 197 50 52 112 97 81 6 175 114 66 64 17 8 119 88 33 187 86 148 103 46 83 7 62 158 116 44 98 194 92 156 135 76 188 27 74 11 139 160 150 16 159 39 55 3 174 73 198 110 72 138 54 43 23 34 25 177 165 108 63 113 145 82 166 75 123 61 24 106 31 134 78 65 84 38 41 79 67 173 107 60 122 105 85 29 37 141 164 47 190 15 111 147 2 146 99 196 154 151 144 13 5 179 26 167 94 136 182 32 149 186 189 57 137 51 140 120 184 126 70 115 185 22 127 58 48 42 18 59 130 102 14 199 20 19 170 169 124 153 71 68 101 104 4 133 10 90 152 117 128 171 49 53 192 96 176 40 35 12 21 200 80 195 181 178 87 172 155 91 201 28 
984
